============================[ Problem Statistics ]=============================|                                                                             ||  Number of variables:          4242                                         ||  Number of clauses:           10497                                         ||  Parse time:                   0.93 s                                       ||                                                                             |============================[ Search Statistics ]==============================| Conflicts |          ORIGINAL         |          LEARNT          | Progress ||           |    Vars  Clauses Literals |    Limit  Clauses Lit/Cl |          |===============================================================================|       100 |    1591     6702  1410283 |     2457      100     53 | 62.501 % ||       250 |    1591     6702  1410283 |     2703      250     75 | 62.495 % |===============================================================================restarts              : 4conflicts             : 474            (342 /sec)decisions             : 833            (0.00 % random) (601 /sec)propagations          : 13794          (9952 /sec)conflict literals     : 40463          (94.43 % deleted)CPU time              : 1.386 sSATISFIABLE